NAME : random_19
COMMENT : 30 random nodes
TYPE : TSP
DIMENSION : 30
EDGE_WEIGHT_TYPE : EUC_2D
NODE_COORD_SECTION
1 556 685
2 94 555
3 163 816
4 28 48
5 901 8
6 561 954
7 829 414
8 490 962
9 837 315
10 852 36
11 235 518
12 514 190
13 787 778
14 327 858
15 538 798
16 550 568
17 753 935
18 333 218
19 73 639
20 230 192
21 398 245
22 98 662
23 794 472
24 382 124
25 993 280
26 804 470
27 917 701
28 881 270
29 809 864
30 653 196
EOF